id: 1265
name: pb-simp-nonunif
group: miplib2010
method: 2

Gurobi 7.0.2 (linux64, Matlab) logging started Tue Mar 27 05:48:17 2018


Gurobi 7.0.2 (linux64) logging started Tue Mar 27 05:48:17 2018

Optimize a model with 1451912 rows, 23848 columns and 4366648 nonzeros
Coefficient statistics:
  Matrix range     [1e+00, 1e+00]
  Objective range  [1e+00, 1e+00]
  Bounds range     [1e+00, 1e+00]
  RHS range        [1e+00, 2e+02]
Presolve removed 7772 rows and 1285256 columns
Presolve time: 0.90s
Presolved: 16076 rows, 190504 columns, 443188 nonzeros

Ordering time: 0.10s

Barrier statistics:
 Dense cols : 107
 Free vars  : 69
 AA' NZ     : 2.519e+05
 Factor NZ  : 6.026e+05 (roughly 90 MBytes of memory)
 Factor Ops : 1.059e+08 (less than 1 second per iteration)
 Threads    : 4

                  Objective                Residual
Iter       Primal          Dual         Primal    Dual     Compl     Time
   0   5.89888905e+04 -2.26000000e+02  3.31e+01 2.00e+00  8.25e+00     1s
   1  -1.53149923e+04  4.03643249e+02  1.68e+01 2.04e+00  4.81e+00     1s
   2  -1.09704342e+05  9.48396707e+01  2.57e-01 7.14e-01  1.73e+00     1s
   3  -4.31721522e+04  7.65375438e+01  1.17e-09 5.88e-02  2.75e-01     1s
   4  -1.57432253e+04  3.28153415e+01  4.05e-10 2.51e-02  9.33e-02     1s
   5  -7.75597849e+03  2.09540146e+01  1.71e-10 1.20e-02  4.44e-02     1s
   6  -3.99708682e+03  1.40044456e+01  8.12e-11 7.84e-03  2.30e-02     1s
   7  -6.50622243e+02  9.49342647e+00  2.10e-11 3.84e-03  4.28e-03     1s
   8  -9.64517837e+01  7.12453717e+00  1.06e-11 1.33e-03  8.30e-04     2s
   9   5.10898616e+00  6.05750658e+00  3.79e-12 6.02e-05  1.79e-05     2s
  10   5.99961371e+00  6.00001297e+00  3.27e-13 1.65e-08  5.12e-09     2s
  11   5.99999961e+00  6.00000000e+00  1.36e-13 7.02e-13  2.15e-12     2s

Barrier solved model in 11 iterations and 1.64 seconds
Optimal objective 5.99999961e+00

Crossover log...

       0 DPushes remaining with DInf 9.6034292e-15                 2s

    8414 PPushes remaining with PInf 0.0000000e+00                 2s
       0 PPushes remaining with PInf 0.0000000e+00                 2s

  Push phase complete: Pinf 0.0000000e+00, Dinf 1.3045121e-14      2s

Iteration    Objective       Primal Inf.    Dual Inf.      Time
   20047    6.0000000e+00   0.000000e+00   0.000000e+00      2s
   20047    6.0000000e+00   0.000000e+00   0.000000e+00      2s

Solved in 20047 iterations and 2.17 seconds
Optimal objective  6.000000000e+00
status: OPTIMAL
